nApps = 217
nRes = 9
nActs = 434
nNetworks = 6

assignmentToResources = [1,1,1,1,1,1,1,2,3,2,3,3,3,3,1,1,3,2,3,1,1,1,1,1,3,2,1,3,1,3,1,3,3,1,2,3,1,1,3,1,3,1,3,1,3,3,3,1,2,2,2,2,2,2,2,3,2,2,1,3,1,1,3,1,2,3,1,2,3,1,1,1,1,2,2,1,2,3,1,3,2,2,2,1,1,1,1,2,1,2,2,2,2,3,1,2,3,3,2,3,4,4,4,4,4,4,4,4,4,4,4,4,4,4,4,4,5,5,6,5,6,6,6,6,6,6,6,4,6,5,6,6,6,4,4,4,4,4,4,4,4,4,4,6,6,5,5,4,4,6,6,4,4,4,6,6,6,4,6,6,6,6,6,6,6,6,6,4,6,6,6,6,4,4,5,5,5,5,5,5,5,5,5,5,5,5,5,5,5,5,5,4,4,4,6,6,4,4,4,4,4,6,6,6,6,4,4,4,4,5,4,6,6,6,6,6,6,4,4,4,4,4,5,5,5,5,5,5,5,5,4,4,6,6,5,5,4,4,4,5,4,5,5,5,6,6,6,5,5,7,6,8,4,8,5,9,6,7,4,9,5,7,4,8,6,7,5,9,5,7,4,9,4,9,5,7,5,7,6,8,6,7,6,7,4,8,9,8,9,9,9,8,9,9,8,8,8,9,8,8,8,8,9,9,8,7,8,7,7,8,7,8,7,8,8,7,7,8,7,8,8,9,9,9,9,8,8,8,9,8,8,7,7,8,9,8,7,9,8,8,7,7,7,8,7,8,7,7,7,8,7,7,8,9,8,7,7,7,8,8,9,7,7,9,7,9,7,9,9,7,9,7,9,7,7,7,9,8,9,9,7,7,9,8,8,8,9,8,8,7,8,9,8,9,9,7,8,7,8,7,7,8,7,8,9,8,9,8,9,7,7,7,7,7,9,7,8,8,7,7,9,9,9,8,8,7,8,9,7,9,7,8,8,7];

processingTimes = [72,144,144,88,128,112,128,88,88,104,120,136,88,80,112,112,128,120,104,160,128,112,80,136,136,128,72,168,160,88,152,64,128,112,136,88,112,80,128,64,152,160,136,136,152,128,168,136,144,160,128,64,136,136,160,128,168,104,120,96,64,144,64,144,136,72,72,64,136,160,128,104,56,104,104,80,72,144,128,112,120,104,136,48,128,96,144,168,136,128,96,128,136,56,160,72,56,80,80,160,500,4,500,4,3,3,500,3,3,4,4,4,4,4,4,500,500,4,3,4,4,4,3,4,4,3,3,3,5,13,500,500,3,3,3,3,500,3,4,4,4,4,3,3,3,4,3,5,500,4,4,4,500,500,3,4,3,500,500,4,8,4,4,4,8,8,500,3,4,4,4,3,3,500,3,3,4,4,100,3,4,5,4,4,4,13,4,3,500,3,8,4,8,4,4,500,3,4,4,4,4,500,500,4,4,3,4,4,4,500,100,3,3,4,500,3,3,4,500,8,23,8,3,4,4,5,4,500,4,4,4,4,8,8,4,4,500,500,4,4,500,500,3,5,500,3,3,5,4,4,4,4,4,4,4,4,3,3,3,3,7,7,4,4,4,4,4,4,4,4,4,4,7,7,3,3,7,7,4,4,3,3,100,100,100,100,500,4,500,4,3,3,500,3,3,4,4,4,4,4,4,500,500,4,3,4,4,4,3,4,4,3,3,3,5,13,500,500,3,3,3,3,500,3,4,4,4,4,3,3,3,4,3,5,500,4,4,4,500,500,3,4,3,500,500,4,8,4,4,4,8,8,500,3,4,4,4,3,3,500,3,3,4,4,100,3,4,5,4,4,4,13,4,3,500,3,8,4,8,4,4,500,3,4,4,4,4,500,500,4,4,3,4,4,4,500,100,3,3,4,500,3,3,4,500,8,23,8,3,4,4,5,4,500,4,4,4,4,8,8,4,4,500,500,4,4,500,500,3,5,500,3,3,5];

periods = [100000,20000,20000,10000,100000,100000,10000,100000,100000,100000,100000,1000,20000,20000,100000,100000,20000,10000,10000,100000,100000,10000,100000,20000,10000,2000,10000,100000,10000,10000,10000,100000,20000,20000,20000,20000,50000,10000,20000,100000,20000,10000,10000,20000,100000,10000,10000,10000,50000,10000,1000,20000,50000,100000,100000,20000,20000,20000,100000,20000,10000,100000,20000,20000,20000,20000,1000,20000,5000,20000,1000,100000,10000,10000,5000,20000,10000,100000,100000,10000,50000,100000,20000,100000,100000,10000,10000,10000,100000,100000,100000,100000,100000,10000,20000,10000,20000,10000,20000,10000,100000,20000,20000,20000,20000,20000,10000,100000,100000,100000,100000,100000,100000,100000,100000,10000,100000,100000,100000,100000,100000,100000,1000,1000,20000,20000,20000,100000,20000,10000,10000,10000,10000,100000,100000,100000,10000,100000,100000,100000,100000,100000,20000,10000,10000,2000,2000,10000,10000,100000,10000,10000,10000,10000,100000,20000,20000,50000,20000,20000,20000,20000,20000,20000,10000,10000,10000,20000,100000,10000,10000,10000,10000,10000,50000,50000,10000,10000,1000,1000,1000,20000,20000,20000,20000,50000,100000,100000,100000,20000,20000,100000,100000,100000,20000,20000,100000,100000,100000,100000,100000,20000,20000,20000,20000,20000,20000,20000,20000,20000,1000,5000,5000,5000,5000,5000,5000,20000,20000,1000,1000,100000,10000,10000,10000,5000,5000,5000,5000,10000,100000,100000,10000,10000,50000,100000,100000,100000,10000,10000,100000,100000,100000,100000,10000,20000,20000,20000,20000,20000,20000,20000,20000,20000,20000,20000,20000,20000,20000,20000,20000,20000,20000,20000,20000,20000,20000,20000,10000,10000,10000,10000,10000,10000,10000,10000,10000,10000,10000,10000,10000,10000,1000,1000,1000,1000,100000,20000,20000,20000,20000,20000,10000,100000,100000,100000,100000,100000,100000,100000,100000,10000,100000,100000,100000,100000,100000,100000,1000,1000,20000,20000,20000,100000,20000,10000,10000,10000,10000,100000,100000,100000,10000,100000,100000,100000,100000,100000,20000,10000,10000,2000,2000,10000,10000,100000,10000,10000,10000,10000,100000,20000,20000,50000,20000,20000,20000,20000,20000,20000,10000,10000,10000,20000,100000,10000,10000,10000,10000,10000,50000,50000,10000,10000,1000,1000,1000,20000,20000,20000,20000,50000,100000,100000,100000,20000,20000,100000,100000,100000,20000,20000,100000,100000,100000,100000,100000,20000,20000,20000,20000,20000,20000,20000,20000,20000,1000,5000,5000,5000,5000,5000,5000,20000,20000,1000,1000,100000,10000,10000,10000,5000,5000,5000,5000,10000,100000,100000,10000,10000,50000,100000,100000,100000,10000,10000,100000,100000,100000,100000,10000,20000,20000,20000];

assignmentToClusters = [1,2,3,4,5,6,7,8,9,10,11,12,3,3,13,13,3,14,15,16,17,18,13,19,20,21,22,23,4,24,25,26,27,3,3,28,29,30,31,32,33,34,35,36,37,4,38,39,40,4,12,41,42,43,44,3,3,45,46,3,47,48,49,50,51,52,12,3,53,3,54,32,4,4,55,3,56,57,58,59,60,61,3,13,58,4,47,4,58,62,63,64,65,4,19,66,67,68,69,4,70,71,72,73,74,75,76,77,78,79,80,81,82,83,84,85,86,87,88,89,90,91,92,93,94,95,96,97,98,99,100,101,102,103,104,105,106,107,108,109,110,111,112,113,114,115,116,117,118,119,120,121,122,123,124,125,126,127,128,129,130,131,132,133,134,135,136,137,138,139,140,141,142,143,144,145,146,147,148,149,150,151,152,153,154,155,156,157,158,159,160,161,162,163,164,165,166,167,168,169,170,171,172,173,174,175,176,177,178,179,180,181,182,183,184,185,186,187,188,189,190,191,192,193,194,195,196,197,198,199,200,201,202,203,204,205,206,207,208,209,210,211,212,213,214,215,216,217,3,3,3,3,3,3,3,3,3,3,3,3,3,3,3,3,3,3,3,3,4,4,4,4,4,4,4,4,4,4,4,4,4,4,12,12,12,12,70,71,72,73,74,75,76,77,78,79,80,81,82,83,84,85,86,87,88,89,90,91,92,93,94,95,96,97,98,99,100,101,102,103,104,105,106,107,108,109,110,111,112,113,114,115,116,117,118,119,120,121,122,123,124,125,126,127,128,129,130,131,132,133,134,135,136,137,138,139,140,141,142,143,144,145,146,147,148,149,150,151,152,153,154,155,156,157,158,159,160,161,162,163,164,165,166,167,168,169,170,171,172,173,174,175,176,177,178,179,180,181,182,183,184,185,186,187,188,189,190,191,192,193,194,195,196,197,198,199,200,201,202,203,204,205,206,207,208,209,210,211,212,213,214,215,216,217];

precedenceAdjList = [[],[],[249],[269],[],[],[],[],[],[],[],[],[255],[],[83],[],[259],[],[],[],[],[],[14],[94],[],[],[],[],[275,277],[],[],[],[],[257],[],[],[],[],[],[],[],[],[],[],[],[],[],[],[],[],[285],[],[],[],[],[12],[263],[],[],[13,267],[],[],[],[],[],[],[283],[],[],[265],[],[39],[28],[279],[],[261],[],[],[84],[],[],[],[251,253],[15],[],[281],[60],[],[78],[],[],[],[],[99,271,273],[],[],[],[],[],[],[],[],[],[],[],[],[],[],[],[],[],[],[],[],[],[],[],[],[],[],[],[],[],[],[],[],[],[],[],[],[],[],[],[],[],[],[],[],[],[],[],[],[],[],[],[],[],[],[],[],[],[],[],[],[],[],[],[],[],[],[],[],[],[],[],[],[],[],[],[],[],[],[],[],[],[],[],[],[],[],[],[],[],[],[],[],[],[],[],[],[],[],[],[],[],[],[],[],[],[],[],[],[],[],[],[],[],[],[],[],[],[],[],[],[],[],[],[],[],[],[],[],[],[],[],[],[],[],[],[],[],[],[],[],[],[],[],[],[],[],[],[],[],[],[],[],[],[],[82],[248],[55],[250],[75],[252],[34],[254],[12],[256],[33],[258],[56],[260],[69],[262],[59],[264],[67],[266],[87],[268],[3],[270],[72],[272],[73],[274],[49],[276],[45],[278],[93],[280],[11],[282],[66],[284],[100],[101],[102],[103],[104],[105],[106],[107],[108],[109],[110],[111],[112],[113],[114],[115],[116],[117],[118],[119],[120],[121],[122],[123],[124],[125],[126],[127],[128],[129],[130],[131],[132],[133],[134],[135],[136],[137],[138],[139],[140],[141],[142],[143],[144],[145],[146],[147],[148],[149],[150],[151],[152],[153],[154],[155],[156],[157],[158],[159],[160],[161],[162],[163],[164],[165],[166],[167],[168],[169],[170],[171],[172],[173],[174],[175],[176],[177],[178],[179],[180],[181],[182],[183],[184],[185],[186],[187],[188],[189],[190],[191],[192],[193],[194],[195],[196],[197],[198],[199],[200],[201],[202],[203],[204],[205],[206],[207],[208],[209],[210],[211],[212],[213],[214],[215],[216],[217],[218],[219],[220],[221],[222],[223],[224],[225],[226],[227],[228],[229],[230],[231],[232],[233],[234],[235],[236],[237],[238],[239],[240],[241],[242],[243],[244],[245],[246],[247]];